n_potions = 66;
alchemy = [2, 1, 4, 2, 2, 1, 1, 2, 4, 1, 2, 2, 3, 5, 5, 5, 5, 4, 1, 1, 3, 5, 3, 5, 4, 5, 4, 4, 3, 5, 4, 2, 4, 2, 5, 3, 2, 5, 2, 2, 4, 5, 2, 1, 3, 3, 1, 5, 5, 2, 3, 3, 1, 5, 5, 2, 5, 4, 3, 4, 1, 1, 4, 4, 4, 3];
n_days = 12;
min_potions = 5;
max_potions = 7;
min_alchemists = 5;
max_alchemists = 35;
prereqs = [|8,2
|8,6
|10,5
|11,5
|11,6
|14,3
|17,10
|17,11
|18,10
|18,11
|19,8
|20,9
|21,10
|23,17
|23,18
|24,19
|26,13
|26,23
|34,17
|35,9
|35,17
|35,18
|37,20
|37,30
|37,35
|38,33
|41,17
|41,18
|43,20
|44,16
|45,38
|46,37
|47,42
|48,34
|48,35
|49,30
|49,32
|50,43
|51,33
|53,47
|54,50
|55,43
|55,38
|56,51
|57,39
|58,28
|61,55
|62,31
|63,48
|65,59
|];
